Optimal - objective value -1312.00000000
      5 x_5                        1                      72
     13 x_13                       1                     -20
     25 x_25                       1                      51
     26 x_26                       1                    83.5
     31 x_31                       1                      50
     49 x_49                       1                      69
     62 x_62                       1                       0
     65 x_65                       1                       0
     76 x_76                       1                       0
     83 x_83                       1                       0
     85 x_85                       1                    56.5
     89 x_89                       1                       0
     91 x_91                       1                       0
     93 x_93                       1                    -1.5
     99 x_99                       1                       0
    103 x_103                      1                   -30.5
    104 x_104                      1                       0
    105 x_105                      1                       0
